proyfinal/src/viki/013/andrea/andrea-localstore/experimentInOfficeAgust.take6/worker_11/6cb94613-7ccb-4610-9a2e-4144a1b13ae6.als.cnf.out
Reading from standard input... Use '--help' for help.
============================[ Problem Statistics ]=============================
|                                                                             |
|  Number of variables:         87638                                         |
|  Number of clauses:          161767                                         |
|  Parse time:                   0.03 s                                       |
|                                                                             |
============================[ Search Statistics ]==============================
| Conflicts |          ORIGINAL         |          LEARNT          | Progress |
|           |    Vars  Clauses Literals |    Limit  Clauses Lit/Cl |          |
===============================================================================
|       100 |   65234   115536   288286 |    42363      100      8 | 25.564 % |
|       250 |   65234   115536   288286 |    46599      250     14 | 25.564 % |
|       475 |   65199   115396   287961 |    51259      474     27 | 25.604 % |
|       812 |   65199   115396   287961 |    56385      811     47 | 25.604 % |
|      1318 |   65198   115352   287871 |    62023     1314     53 | 25.605 % |
|      2077 |   65198   115352   287871 |    68226     2073     75 | 25.605 % |
|      3216 |   65198   115352   287871 |    75048     3212    119 | 25.605 % |
|      4924 |   57569    91511   229335 |    82553     4889    101 | 34.310 % |
|      7486 |   57259    90323   226494 |    90809     7433     88 | 34.664 % |
|     11330 |   57225    90191   226184 |    99890    11271     82 | 34.703 % |
|     17096 |   57201    90091   225955 |   109879    17035     86 | 34.730 % |
===============================================================================
restarts              : 69
conflicts             : 19933          (6911 /sec)
decisions             : 88774          (0.00 % random) (30779 /sec)
propagations          : 30200997       (10471154 /sec)
conflict literals     : 1729612        (42.57 % deleted)
Memory used           : 39.18 MB
CPU time              : 2.88421 s

INDETERMINATE
